\ Model Examen1Punto2Primal
\ LP format - for model browsing. Use MPS format to capture full model detail.
Maximize
  180000 x[0] + 220000 x[1] + 20000 x[2]
Subject To
 c[0]: 15 x[0] + 10 x[1] + 8 x[2] <= 18789
 c[1]: 15 x[0] + 15 x[1] + 4 x[2] <= 18123
 c[2]: 3 x[0] + 4 x[1] + 2 x[2] <= 9789
 c[3]: - x[0] <= -923
 c[4]: - x[1] <= -223
Bounds
End
